NAME : 	X-n856-k95	
COMMENT : 	"Generated by Uchoa, Pecin, Pessoa, Poggi, Subramanian, and Vidal (2013)"	
TYPE : 	CVRP	
DIMENSION : 	856	
EDGE_WEIGHT_TYPE : 	EUC_2D	
CAPACITY : 	9	
NODE_COORD_SECTION		
1	500	500
2	440	732
3	221	348
4	117	545
5	493	645
6	135	12
7	775	997
8	745	444
9	950	311
10	530	150
11	900	508
12	48	519
13	269	217
14	722	349
15	480	733
16	977	422
17	999	220
18	636	332
19	851	162
20	559	567
21	389	69
22	529	835
23	303	427
24	400	638
25	894	904
26	482	109
27	579	800
28	184	82
29	669	753
30	906	424
31	374	692
32	174	613
33	75	37
34	38	563
35	838	157
36	710	709
37	176	67
38	449	326
39	71	389
40	710	115
41	237	547
42	530	27
43	631	223
44	171	342
45	226	65
46	6	998
47	24	635
48	668	165
49	318	608
50	429	82
51	212	237
52	853	126
53	387	47
54	677	144
55	111	790
56	957	32
57	511	647
58	457	561
59	86	687
60	290	456
61	473	563
62	807	725
63	461	468
64	739	235
65	257	340
66	588	545
67	6	311
68	268	976
69	552	414
70	994	946
71	452	534
72	422	545
73	248	611
74	43	366
75	977	96
76	822	580
77	940	650
78	86	263
79	715	99
80	668	981
81	424	638
82	297	607
83	251	282
84	237	413
85	202	573
86	181	385
87	126	528
88	386	811
89	978	846
90	70	99
91	333	357
92	49	870
93	157	734
94	627	268
95	818	433
96	738	555
97	350	909
98	337	926
99	978	59
100	42	595
101	870	933
102	19	120
103	165	679
104	131	984
105	232	755
106	319	417
107	187	376
108	251	482
109	657	219
110	209	397
111	800	377
112	228	116
113	566	559
114	490	156
115	216	547
116	964	677
117	85	897
118	292	807
119	600	893
120	938	222
121	543	747
122	572	976
123	569	59
124	712	574
125	971	515
126	616	306
127	695	837
128	421	821
129	604	995
130	537	957
131	1000	653
132	282	817
133	380	874
134	778	101
135	462	74
136	87	682
137	441	228
138	608	430
139	511	313
140	710	300
141	630	24
142	626	650
143	531	719
144	598	824
145	995	622
146	258	981
147	358	281
148	279	169
149	286	268
150	259	659
151	782	132
152	862	518
153	457	603
154	210	438
155	44	44
156	527	818
157	164	156
158	23	86
159	342	930
160	39	282
161	269	848
162	436	886
163	323	340
164	237	891
165	333	488
166	517	137
167	591	972
168	541	888
169	122	280
170	159	655
171	200	158
172	446	283
173	107	315
174	588	270
175	158	374
176	26	353
177	959	76
178	852	328
179	927	736
180	437	138
181	53	938
182	333	192
183	922	499
184	407	948
185	970	664
186	237	738
187	8	561
188	747	852
189	989	908
190	100	860
191	10	960
192	842	190
193	595	716
194	286	965
195	199	373
196	159	67
197	979	25
198	488	479
199	804	620
200	742	853
201	528	160
202	223	342
203	503	159
204	711	681
205	339	340
206	342	509
207	931	593
208	766	953
209	710	172
210	521	451
211	172	159
212	685	836
213	639	155
214	763	656
215	269	241
216	825	761
217	330	177
218	901	124
219	713	860
220	619	926
221	692	19
222	96	876
223	949	178
224	79	795
225	833	852
226	336	444
227	877	0
228	296	597
229	566	735
230	940	377
231	349	269
232	939	827
233	908	120
234	50	741
235	670	569
236	753	744
237	577	351
238	141	616
239	97	625
240	64	875
241	496	160
242	515	598
243	344	803
244	274	510
245	291	170
246	800	300
247	74	609
248	365	207
249	791	396
250	453	848
251	405	191
252	395	290
253	525	743
254	260	385
255	408	837
256	1	346
257	231	504
258	837	572
259	606	473
260	900	729
261	346	868
262	123	80
263	477	169
264	383	59
265	510	410
266	890	101
267	952	635
268	825	722
269	68	598
270	234	841
271	911	720
272	172	367
273	569	289
274	84	19
275	694	916
276	454	412
277	261	233
278	693	375
279	588	854
280	276	538
281	599	569
282	142	158
283	338	805
284	324	194
285	739	325
286	845	639
287	638	182
288	858	93
289	40	923
290	37	599
291	638	39
292	218	714
293	568	674
294	288	840
295	439	570
296	325	801
297	587	278
298	992	674
299	597	608
300	174	865
301	65	330
302	872	434
303	620	129
304	339	681
305	178	811
306	478	966
307	469	749
308	475	791
309	799	594
310	692	130
311	59	223
312	811	2
313	5	946
314	219	305
315	759	951
316	656	889
317	582	18
318	97	885
319	888	467
320	899	286
321	512	358
322	188	776
323	220	951
324	503	801
325	483	402
326	685	904
327	483	722
328	13	301
329	387	976
330	607	709
331	857	739
332	51	422
333	818	797
334	302	646
335	474	101
336	817	66
337	573	973
338	948	686
339	922	552
340	586	899
341	153	503
342	47	817
343	740	970
344	216	852
345	261	776
346	935	540
347	920	879
348	642	623
349	305	71
350	268	373
351	409	940
352	374	176
353	894	60
354	539	352
355	605	457
356	4	240
357	340	303
358	563	524
359	861	875
360	700	810
361	160	753
362	985	455
363	981	276
364	708	646
365	575	249
366	777	725
367	724	888
368	853	773
369	4	27
370	743	430
371	301	574
372	38	983
373	575	209
374	10	683
375	878	342
376	745	333
377	616	311
378	537	110
379	70	839
380	531	647
381	157	736
382	609	356
383	450	852
384	534	11
385	436	279
386	340	578
387	41	809
388	971	282
389	389	628
390	171	951
391	821	278
392	633	578
393	158	858
394	374	163
395	219	471
396	392	784
397	586	937
398	546	923
399	619	737
400	700	50
401	722	223
402	112	450
403	857	66
404	81	295
405	314	964
406	829	981
407	723	590
408	645	700
409	318	800
410	277	268
411	459	81
412	573	211
413	391	259
414	368	81
415	262	451
416	629	44
417	390	264
418	842	703
419	780	254
420	653	177
421	882	625
422	763	432
423	615	183
424	62	855
425	629	543
426	27	83
427	822	574
428	355	86
429	102	110
430	859	489
431	410	900
432	519	683
433	111	12
434	957	366
435	848	474
436	265	184
437	985	701
438	862	488
439	215	888
440	945	515
441	76	204
442	553	988
443	22	32
444	817	463
445	938	553
446	441	911
447	944	473
448	120	85
449	139	101
450	551	214
451	422	750
452	373	976
453	196	122
454	312	75
455	870	353
456	25	46
457	470	958
458	184	140
459	890	462
460	841	551
461	843	479
462	82	88
463	979	491
464	898	582
465	439	811
466	8	173
467	199	182
468	239	151
469	960	334
470	67	99
471	49	100
472	253	120
473	124	84
474	64	183
475	453	987
476	490	869
477	153	111
478	421	756
479	862	440
480	170	166
481	887	544
482	854	544
483	58	109
484	135	102
485	408	787
486	44	101
487	859	469
488	865	487
489	845	522
490	350	875
491	24	154
492	945	452
493	732	438
494	322	797
495	569	889
496	853	466
497	286	3
498	19	558
499	44	168
500	482	967
501	271	127
502	425	909
503	405	777
504	921	499
505	513	901
506	811	488
507	541	920
508	41	240
509	876	405
510	449	871
511	786	558
512	467	684
513	75	150
514	827	446
515	625	441
516	122	117
517	321	913
518	935	443
519	378	902
520	95	48
521	939	576
522	991	561
523	887	479
524	108	102
525	822	451
526	137	252
527	788	543
528	556	988
529	769	375
530	445	848
531	446	965
532	925	421
533	674	544
534	117	30
535	388	987
536	119	18
537	439	962
538	134	297
539	614	521
540	887	325
541	467	903
542	772	461
543	423	944
544	379	846
545	916	509
546	983	447
547	667	885
548	96	150
549	465	911
550	96	17
551	425	963
552	93	201
553	132	93
554	671	926
555	901	468
556	93	287
557	795	581
558	741	514
559	119	223
560	503	964
561	849	388
562	80	58
563	116	81
564	123	266
565	683	363
566	77	114
567	872	520
568	187	62
569	83	158
570	918	677
571	19	198
572	909	427
573	937	395
574	11	176
575	80	88
576	72	143
577	510	919
578	25	87
579	421	825
580	855	443
581	823	522
582	468	802
583	2	112
584	96	91
585	647	389
586	876	475
587	422	970
588	705	454
589	151	897
590	853	420
591	883	484
592	27	44
593	852	479
594	154	38
595	285	921
596	50	196
597	956	449
598	259	863
599	702	637
600	422	975
601	413	885
602	432	847
603	112	263
604	908	625
605	783	344
606	422	744
607	372	987
608	860	387
609	168	96
610	358	850
611	476	813
612	62	117
613	539	970
614	278	215
615	854	616
616	379	769
617	418	899
618	128	124
619	46	207
620	466	816
621	890	559
622	688	555
623	826	582
624	127	126
625	879	499
626	401	805
627	384	826
628	320	775
629	204	336
630	866	515
631	801	544
632	117	139
633	852	498
634	397	949
635	405	865
636	724	356
637	414	830
638	131	31
639	318	200
640	946	468
641	1	157
642	542	729
643	245	352
644	539	905
645	827	317
646	376	836
647	878	519
648	212	724
649	876	516
650	96	124
651	939	557
652	504	915
653	380	841
654	149	149
655	804	494
656	330	999
657	104	67
658	283	883
659	877	601
660	866	497
661	138	48
662	814	455
663	970	535
664	450	898
665	220	93
666	208	26
667	317	96
668	921	488
669	903	248
670	95	80
671	849	498
672	816	494
673	52	141
674	180	59
675	69	98
676	199	69
677	884	460
678	879	525
679	57	102
680	978	705
681	929	486
682	152	106
683	691	634
684	456	977
685	391	789
686	442	872
687	754	759
688	854	615
689	820	450
690	326	986
691	71	69
692	315	718
693	377	938
694	44	74
695	290	921
696	899	478
697	24	197
698	438	957
699	142	147
700	437	837
701	742	549
702	288	844
703	792	425
704	413	913
705	447	938
706	849	496
707	262	65
708	840	466
709	533	687
710	810	536
711	213	160
712	860	414
713	884	459
714	4	153
715	447	930
716	140	44
717	521	878
718	575	779
719	442	900
720	877	579
721	893	487
722	73	13
723	394	886
724	511	949
725	474	772
726	812	425
727	684	471
728	458	971
729	132	137
730	797	351
731	401	904
732	132	115
733	386	268
734	856	456
735	953	616
736	382	794
737	548	895
738	861	525
739	372	780
740	967	425
741	534	912
742	52	157
743	396	888
744	82	60
745	856	523
746	12	90
747	8	208
748	303	67
749	497	721
750	454	984
751	120	69
752	831	458
753	786	524
754	40	111
755	347	868
756	377	932
757	296	934
758	896	547
759	884	450
760	812	534
761	926	500
762	380	921
763	423	888
764	797	512
765	848	444
766	716	514
767	412	903
768	871	532
769	402	885
770	870	564
771	826	512
772	529	867
773	451	999
774	852	522
775	406	859
776	51	110
777	919	577
778	824	407
779	411	883
780	794	483
781	46	105
782	274	236
783	430	972
784	854	533
785	336	959
786	813	702
787	210	304
788	460	867
789	315	915
790	454	857
791	905	380
792	831	580
793	399	106
794	97	106
795	805	499
796	904	561
797	420	930
798	876	448
799	102	164
800	74	112
801	139	43
802	370	995
803	849	441
804	405	938
805	57	100
806	78	81
807	170	77
808	959	379
809	347	913
810	845	478
811	316	803
812	115	74
813	538	906
814	939	530
815	405	891
816	235	819
817	982	463
818	817	482
819	463	971
820	847	370
821	200	145
822	769	970
823	712	624
824	910	566
825	867	531
826	352	966
827	490	865
828	451	831
829	97	85
830	408	920
831	869	485
832	341	453
833	10	127
834	1	25
835	918	775
836	277	884
837	847	483
838	884	435
839	745	448
840	118	13
841	222	755
842	695	341
843	25	18
844	380	843
845	949	466
846	436	877
847	912	446
848	405	857
849	824	490
850	486	866
851	568	430
852	935	513
853	821	687
854	367	814
855	33	97
856	411	722
DEMAND_SECTION		
1	0
2	1
3	1
4	1
5	1
6	1
7	1
8	1
9	1
10	1
11	1
12	1
13	1
14	1
15	1
16	1
17	1
18	1
19	1
20	1
21	1
22	1
23	1
24	1
25	1
26	1
27	1
28	1
29	1
30	1
31	1
32	1
33	1
34	1
35	1
36	1
37	1
38	1
39	1
40	1
41	1
42	1
43	1
44	1
45	1
46	1
47	1
48	1
49	1
50	1
51	1
52	1
53	1
54	1
55	1
56	1
57	1
58	1
59	1
60	1
61	1
62	1
63	1
64	1
65	1
66	1
67	1
68	1
69	1
70	1
71	1
72	1
73	1
74	1
75	1
76	1
77	1
78	1
79	1
80	1
81	1
82	1
83	1
84	1
85	1
86	1
87	1
88	1
89	1
90	1
91	1
92	1
93	1
94	1
95	1
96	1
97	1
98	1
99	1
100	1
101	1
102	1
103	1
104	1
105	1
106	1
107	1
108	1
109	1
110	1
111	1
112	1
113	1
114	1
115	1
116	1
117	1
118	1
119	1
120	1
121	1
122	1
123	1
124	1
125	1
126	1
127	1
128	1
129	1
130	1
131	1
132	1
133	1
134	1
135	1
136	1
137	1
138	1
139	1
140	1
141	1
142	1
143	1
144	1
145	1
146	1
147	1
148	1
149	1
150	1
151	1
152	1
153	1
154	1
155	1
156	1
157	1
158	1
159	1
160	1
161	1
162	1
163	1
164	1
165	1
166	1
167	1
168	1
169	1
170	1
171	1
172	1
173	1
174	1
175	1
176	1
177	1
178	1
179	1
180	1
181	1
182	1
183	1
184	1
185	1
186	1
187	1
188	1
189	1
190	1
191	1
192	1
193	1
194	1
195	1
196	1
197	1
198	1
199	1
200	1
201	1
202	1
203	1
204	1
205	1
206	1
207	1
208	1
209	1
210	1
211	1
212	1
213	1
214	1
215	1
216	1
217	1
218	1
219	1
220	1
221	1
222	1
223	1
224	1
225	1
226	1
227	1
228	1
229	1
230	1
231	1
232	1
233	1
234	1
235	1
236	1
237	1
238	1
239	1
240	1
241	1
242	1
243	1
244	1
245	1
246	1
247	1
248	1
249	1
250	1
251	1
252	1
253	1
254	1
255	1
256	1
257	1
258	1
259	1
260	1
261	1
262	1
263	1
264	1
265	1
266	1
267	1
268	1
269	1
270	1
271	1
272	1
273	1
274	1
275	1
276	1
277	1
278	1
279	1
280	1
281	1
282	1
283	1
284	1
285	1
286	1
287	1
288	1
289	1
290	1
291	1
292	1
293	1
294	1
295	1
296	1
297	1
298	1
299	1
300	1
301	1
302	1
303	1
304	1
305	1
306	1
307	1
308	1
309	1
310	1
311	1
312	1
313	1
314	1
315	1
316	1
317	1
318	1
319	1
320	1
321	1
322	1
323	1
324	1
325	1
326	1
327	1
328	1
329	1
330	1
331	1
332	1
333	1
334	1
335	1
336	1
337	1
338	1
339	1
340	1
341	1
342	1
343	1
344	1
345	1
346	1
347	1
348	1
349	1
350	1
351	1
352	1
353	1
354	1
355	1
356	1
357	1
358	1
359	1
360	1
361	1
362	1
363	1
364	1
365	1
366	1
367	1
368	1
369	1
370	1
371	1
372	1
373	1
374	1
375	1
376	1
377	1
378	1
379	1
380	1
381	1
382	1
383	1
384	1
385	1
386	1
387	1
388	1
389	1
390	1
391	1
392	1
393	1
394	1
395	1
396	1
397	1
398	1
399	1
400	1
401	1
402	1
403	1
404	1
405	1
406	1
407	1
408	1
409	1
410	1
411	1
412	1
413	1
414	1
415	1
416	1
417	1
418	1
419	1
420	1
421	1
422	1
423	1
424	1
425	1
426	1
427	1
428	1
429	1
430	1
431	1
432	1
433	1
434	1
435	1
436	1
437	1
438	1
439	1
440	1
441	1
442	1
443	1
444	1
445	1
446	1
447	1
448	1
449	1
450	1
451	1
452	1
453	1
454	1
455	1
456	1
457	1
458	1
459	1
460	1
461	1
462	1
463	1
464	1
465	1
466	1
467	1
468	1
469	1
470	1
471	1
472	1
473	1
474	1
475	1
476	1
477	1
478	1
479	1
480	1
481	1
482	1
483	1
484	1
485	1
486	1
487	1
488	1
489	1
490	1
491	1
492	1
493	1
494	1
495	1
496	1
497	1
498	1
499	1
500	1
501	1
502	1
503	1
504	1
505	1
506	1
507	1
508	1
509	1
510	1
511	1
512	1
513	1
514	1
515	1
516	1
517	1
518	1
519	1
520	1
521	1
522	1
523	1
524	1
525	1
526	1
527	1
528	1
529	1
530	1
531	1
532	1
533	1
534	1
535	1
536	1
537	1
538	1
539	1
540	1
541	1
542	1
543	1
544	1
545	1
546	1
547	1
548	1
549	1
550	1
551	1
552	1
553	1
554	1
555	1
556	1
557	1
558	1
559	1
560	1
561	1
562	1
563	1
564	1
565	1
566	1
567	1
568	1
569	1
570	1
571	1
572	1
573	1
574	1
575	1
576	1
577	1
578	1
579	1
580	1
581	1
582	1
583	1
584	1
585	1
586	1
587	1
588	1
589	1
590	1
591	1
592	1
593	1
594	1
595	1
596	1
597	1
598	1
599	1
600	1
601	1
602	1
603	1
604	1
605	1
606	1
607	1
608	1
609	1
610	1
611	1
612	1
613	1
614	1
615	1
616	1
617	1
618	1
619	1
620	1
621	1
622	1
623	1
624	1
625	1
626	1
627	1
628	1
629	1
630	1
631	1
632	1
633	1
634	1
635	1
636	1
637	1
638	1
639	1
640	1
641	1
642	1
643	1
644	1
645	1
646	1
647	1
648	1
649	1
650	1
651	1
652	1
653	1
654	1
655	1
656	1
657	1
658	1
659	1
660	1
661	1
662	1
663	1
664	1
665	1
666	1
667	1
668	1
669	1
670	1
671	1
672	1
673	1
674	1
675	1
676	1
677	1
678	1
679	1
680	1
681	1
682	1
683	1
684	1
685	1
686	1
687	1
688	1
689	1
690	1
691	1
692	1
693	1
694	1
695	1
696	1
697	1
698	1
699	1
700	1
701	1
702	1
703	1
704	1
705	1
706	1
707	1
708	1
709	1
710	1
711	1
712	1
713	1
714	1
715	1
716	1
717	1
718	1
719	1
720	1
721	1
722	1
723	1
724	1
725	1
726	1
727	1
728	1
729	1
730	1
731	1
732	1
733	1
734	1
735	1
736	1
737	1
738	1
739	1
740	1
741	1
742	1
743	1
744	1
745	1
746	1
747	1
748	1
749	1
750	1
751	1
752	1
753	1
754	1
755	1
756	1
757	1
758	1
759	1
760	1
761	1
762	1
763	1
764	1
765	1
766	1
767	1
768	1
769	1
770	1
771	1
772	1
773	1
774	1
775	1
776	1
777	1
778	1
779	1
780	1
781	1
782	1
783	1
784	1
785	1
786	1
787	1
788	1
789	1
790	1
791	1
792	1
793	1
794	1
795	1
796	1
797	1
798	1
799	1
800	1
801	1
802	1
803	1
804	1
805	1
806	1
807	1
808	1
809	1
810	1
811	1
812	1
813	1
814	1
815	1
816	1
817	1
818	1
819	1
820	1
821	1
822	1
823	1
824	1
825	1
826	1
827	1
828	1
829	1
830	1
831	1
832	1
833	1
834	1
835	1
836	1
837	1
838	1
839	1
840	1
841	1
842	1
843	1
844	1
845	1
846	1
847	1
848	1
849	1
850	1
851	1
852	1
853	1
854	1
855	1
856	1
DEPOT_SECTION	
	1
	-1
EOF	
